Ti2 Mn4 Rh2
1.0
   0.0000000000000005    2.9435844496034602    2.9435844496034602
   2.9435844496034598   -2.9435844496034602    0.0000000000000000
   5.8871688992069204    2.9435844496034602   -2.9435844496034593
Ti Mn Rh
2 4 2
direct
   0.8750000000000000    0.7500000000000002    0.3750000000000000 Ti
   0.3750000000000000    0.7500000000000001    0.8749999999999999 Ti
   0.6250000000000000    0.2499999999999999    0.1249999999999999 Mn,spin=3.0
   0.1250000000000000    0.2499999999999998    0.6250000000000000 Mn,spin=3.0
   0.0000000000000000    0.0000000000000000    0.0000000000000000 Mn,spin=3.0
   0.5000000000000000    0.0000000000000000    0.5000000000000001 Mn,spin=-3.0
   0.2500000000000000    0.4999999999999999    0.2500000000000001 Rh
   0.7500000000000000    0.4999999999999999    0.7500000000000002 Rh
