Ta2 Fe4 Ru2                             
   1.00000000000000     
     0.0000000000000005    3.0140828854610331    3.0140828854610331
     3.0140828854610326   -3.0140828854610331    0.0000000000000000
     6.0281657709220662    3.0140828854610331   -3.0140828854610322
  Ta/             Fe/             Ru/           
               2               4               2
Direct
  0.2500000000000000  0.5000000000000000  0.2500000000000000
  0.7500000000000000  0.5000000000000000  0.7500000000000000
  0.6250000000000000  0.2500000000000000  0.1250000000000000
  0.1250000000000000  0.2500000000000000  0.6250000000000000
  0.0000000000000000  0.0000000000000000  0.0000000000000000
  0.5000000000000000  0.0000000000000000  0.5000000000000000
  0.8750000000000000  0.7500000000000000  0.3750000000000000
  0.3750000000000000  0.7500000000000000  0.8750000000000000
 
  0.00000000E+00  0.00000000E+00  0.00000000E+00
  0.00000000E+00  0.00000000E+00  0.00000000E+00
  0.00000000E+00  0.00000000E+00  0.00000000E+00
  0.00000000E+00  0.00000000E+00  0.00000000E+00
  0.00000000E+00  0.00000000E+00  0.00000000E+00
  0.00000000E+00  0.00000000E+00  0.00000000E+00
  0.00000000E+00  0.00000000E+00  0.00000000E+00
  0.00000000E+00  0.00000000E+00  0.00000000E+00
