Heusler tetragonGa                      
   6.05000000000000     
     0.9833326129610629    0.0000000000000000    0.0000000000000000
     0.0000000000000000    0.9833326129610629    0.0000000000000000
     0.0000000000000000    0.0000000000000000    1.0127831340606310
   Fe   Co   Sn
     8     4     4
Direct
  0.0000000000000000  0.5000000000000000  0.5000000000000000
  0.0000000000000000  0.0000000000000000  0.5000000000000000
  0.5000000000000000  0.5000000000000000  0.5000000000000000
  0.5000000000000000  0.0000000000000000  0.5000000000000000
  0.2500000000000000  0.7500000000000000  0.2497894614594713
  0.7500000000000000  0.2500000000000000  0.2497894614594713
  0.2500000000000000  0.2500000000000000  0.7502105385405287
  0.7500000000000000  0.7500000000000000  0.7502105385405287
  0.5000000000000000  0.5000000000000000  0.0000000000000000
  0.0000000000000000  0.0000000000000000  0.0000000000000000
  0.5000000000000000  0.0000000000000000  0.0000000000000000
  0.0000000000000000  0.5000000000000000  0.0000000000000000
  0.2500000000000000  0.2500000000000000  0.2422433492479144
  0.2500000000000000  0.7500000000000000  0.7577566507520856
  0.7500000000000000  0.7500000000000000  0.2422433492479144
  0.7500000000000000  0.2500000000000000  0.7577566507520856
 
  0.00000000E+00  0.00000000E+00  0.00000000E+00
  0.00000000E+00  0.00000000E+00  0.00000000E+00
  0.00000000E+00  0.00000000E+00  0.00000000E+00
  0.00000000E+00  0.00000000E+00  0.00000000E+00
  0.00000000E+00  0.00000000E+00  0.00000000E+00
  0.00000000E+00  0.00000000E+00  0.00000000E+00
  0.00000000E+00  0.00000000E+00  0.00000000E+00
  0.00000000E+00  0.00000000E+00  0.00000000E+00
  0.00000000E+00  0.00000000E+00  0.00000000E+00
  0.00000000E+00  0.00000000E+00  0.00000000E+00
  0.00000000E+00  0.00000000E+00  0.00000000E+00
  0.00000000E+00  0.00000000E+00  0.00000000E+00
  0.00000000E+00  0.00000000E+00  0.00000000E+00
  0.00000000E+00  0.00000000E+00  0.00000000E+00
  0.00000000E+00  0.00000000E+00  0.00000000E+00
  0.00000000E+00  0.00000000E+00  0.00000000E+00
