Mn4 Cr2 Pt2
1.0
   0.0000000000000005    2.9033202664938567    2.9033202664938567
   2.9033202664938562   -2.9033202664938567    0.0000000000000000
   5.8066405329877133    2.9033202664938567   -2.9033202664938558
Mn Cr Pt
4 2 2
direct
   0.6250000000000001    0.2500000000000001    0.1250000000000001 Mn,spin=3.0
   0.1250000000000000    0.2500000000000000    0.6250000000000000 Mn,spin=3.0
   0.8750000000000000    0.7499999999999999    0.3750000000000001 Mn,spin=3.0
   0.3750000000000000    0.7500000000000001    0.8750000000000000 Mn,spin=3.0
   0.2500000000000002    0.5000000000000000    0.2500000000000001 Cr,spin=2.2
   0.7500000000000004    0.4999999999999999    0.7500000000000002 Cr,spin=-2.2
   0.0000000000000000    0.0000000000000000    0.0000000000000000 Pt
   0.5000000000000001    0.0000000000000001    0.4999999999999999 Pt
