Heusler tetragonal                      
   5.76000000000000     
     0.9934098744169264    0.0000000000000000    0.0000000000000000
     0.0000000000000000    0.9934098744169264    0.0000000000000000
     0.0000000000000000    0.0000000000000000    0.9920259685607199
   Fe   Co   Ge
     8     4     4
Direct
  0.5000000000000000  0.0000000000000000  0.5000000000000000
  0.5000000000000000  0.0000000000000000  0.0000000000000000
  0.0000000000000000  0.0000000000000000  0.5000000000000000
  0.5000000000000000  0.5000000000000000  0.0000000000000000
  0.2530931161729626  0.2469068838270374  0.7500000000000000
  0.2530931161729626  0.7530931161729626  0.2500000000000000
  0.7469068838270374  0.2469068838270374  0.2500000000000000
  0.7469068838270374  0.7530931161729626  0.7500000000000000
  0.0000000000000000  0.5000000000000000  0.5000000000000000
  0.0000000000000000  0.0000000000000000  0.0000000000000000
  0.0000000000000000  0.5000000000000000  0.0000000000000000
  0.5000000000000000  0.5000000000000000  0.5000000000000000
  0.2479671758188431  0.2520328241811569  0.2500000000000000
  0.7520328241811569  0.2520328241811569  0.7500000000000000
  0.2479671758188431  0.7479671758188431  0.7500000000000000
  0.7520328241811569  0.7479671758188431  0.2500000000000000
 
  0.00000000E+00  0.00000000E+00  0.00000000E+00
  0.00000000E+00  0.00000000E+00  0.00000000E+00
  0.00000000E+00  0.00000000E+00  0.00000000E+00
  0.00000000E+00  0.00000000E+00  0.00000000E+00
  0.00000000E+00  0.00000000E+00  0.00000000E+00
  0.00000000E+00  0.00000000E+00  0.00000000E+00
  0.00000000E+00  0.00000000E+00  0.00000000E+00
  0.00000000E+00  0.00000000E+00  0.00000000E+00
  0.00000000E+00  0.00000000E+00  0.00000000E+00
  0.00000000E+00  0.00000000E+00  0.00000000E+00
  0.00000000E+00  0.00000000E+00  0.00000000E+00
  0.00000000E+00  0.00000000E+00  0.00000000E+00
  0.00000000E+00  0.00000000E+00  0.00000000E+00
  0.00000000E+00  0.00000000E+00  0.00000000E+00
  0.00000000E+00  0.00000000E+00  0.00000000E+00
  0.00000000E+00  0.00000000E+00  0.00000000E+00
