Ti2 Fe4 Cu2
1.0
   0.0000000000000005    2.9157790346111212    2.9157790346111212
   2.9157790346111208   -2.9157790346111212    0.0000000000000000
   5.8315580692222424    2.9157790346111212   -2.9157790346111203
Ti Fe Cu
2 4 2
direct
   0.2500000000000000    0.4999999999999999    0.2500000000000000 Ti
   0.7500000000000000    0.4999999999999999    0.7500000000000000 Ti
   0.6250000000000000    0.2500000000000000    0.1250000000000001 Fe,spin=2.2
   0.1250000000000002    0.2500000000000002    0.6250000000000000 Fe,spin=2.2
   0.0000000000000000    0.0000000000000000    0.0000000000000000 Fe,spin=2.2
   0.5000000000000000    0.0000000000000000    0.4999999999999999 Fe,spin=-2.2
   0.8750000000000000    0.7500000000000001    0.3750000000000000 Cu
   0.3750000000000000    0.7499999999999998    0.8750000000000000 Cu
