Heusler tetragonal                      
   5.74000000000000     
     0.9981864258655624    0.0000000000000000    0.0000000000000000
     0.0000000000000000    0.9981864258655624    0.0000000000000000
     0.0000000000000000    0.0000000000000000    1.0026561196177859
   Fe   Co   Ga
     8     4     4
Direct
  0.5000000000000000  0.0000000000000000  0.5000000000000000
  0.5000000000000000  0.0000000000000000  0.0000000000000000
  0.0000000000000000  0.0000000000000000  0.5000000000000000
  0.5000000000000000  0.5000000000000000  0.0000000000000000
  0.2506627356207076  0.2493372643792924  0.7500000000000000
  0.2506627356207076  0.7506627356207005  0.2500000000000000
  0.7493372643792995  0.2493372643792924  0.2500000000000000
  0.7493372643792995  0.7506627356207005  0.7500000000000000
  0.0000000000000000  0.5000000000000000  0.5000000000000000
  0.0000000000000000  0.0000000000000000  0.0000000000000000
  0.0000000000000000  0.5000000000000000  0.0000000000000000
  0.5000000000000000  0.5000000000000000  0.5000000000000000
  0.2470612297648458  0.2529387702351542  0.2500000000000000
  0.7529387702351542  0.2529387702351542  0.7500000000000000
  0.2470612297648458  0.7470612297648458  0.7500000000000000
  0.7529387702351542  0.7470612297648458  0.2500000000000000
 
  0.00000000E+00  0.00000000E+00  0.00000000E+00
  0.00000000E+00  0.00000000E+00  0.00000000E+00
  0.00000000E+00  0.00000000E+00  0.00000000E+00
  0.00000000E+00  0.00000000E+00  0.00000000E+00
  0.00000000E+00  0.00000000E+00  0.00000000E+00
  0.00000000E+00  0.00000000E+00  0.00000000E+00
  0.00000000E+00  0.00000000E+00  0.00000000E+00
  0.00000000E+00  0.00000000E+00  0.00000000E+00
  0.00000000E+00  0.00000000E+00  0.00000000E+00
  0.00000000E+00  0.00000000E+00  0.00000000E+00
  0.00000000E+00  0.00000000E+00  0.00000000E+00
  0.00000000E+00  0.00000000E+00  0.00000000E+00
  0.00000000E+00  0.00000000E+00  0.00000000E+00
  0.00000000E+00  0.00000000E+00  0.00000000E+00
  0.00000000E+00  0.00000000E+00  0.00000000E+00
  0.00000000E+00  0.00000000E+00  0.00000000E+00
