V2 Fe4 Ir2
1.0
   0.0000000000000005    2.9087502414693582    2.9087502414693582
   5.8175004829387165    0.0000000000000000    0.0000000000000004
   0.0000000000000004    2.9087502414693582   -2.9087502414693578
V Fe Ir
2 4 2
direct
   0.5000000000000000    0.7499999999999999    0.0000000000000000 V
   0.0000000000000000    0.2499999999999998    0.4999999999999999 V
   0.5000000000000000    0.2500000000000001    0.0000000000000000 Fe,spin=2.2
   0.0000000000000000    0.7500000000000000    0.4999999999999999 Fe,spin=2.2
   0.0000000000000000    0.0000000000000000    0.0000000000000000 Fe,spin=2.2
   0.4999999999999999    0.4999999999999999    0.5000000000000000 Fe,spin=-2.2
   0.0000000000000000    0.4999999999999999    0.0000000000000000 Ir
   0.5000000000000000    0.9999999999999999    0.5000000000000000 Ir
