Sc2 Co2 Ni4
1.0
   0.0000000000000005    2.9711009783180899    2.9711009783180899
   5.9422019566361799    0.0000000000000000    0.0000000000000004
   0.0000000000000004    2.9711009783180899   -2.9711009783180895
Sc Co Ni
2 2 4
direct
   0.5000000000000002    0.7500000000000000    0.0000000000000000 Sc
   0.0000000000000000    0.2500000000000000    0.4999999999999999 Sc
   0.9999999999999999    0.5000000000000000    0.0000000000000001 Co,spin=3.0
   0.5000000000000000    0.0000000000000000    0.5000000000000000 Co,spin=3.0
   0.5000000000000001    0.2500000000000001    0.0000000000000001 Ni,spin=-1.6
   0.0000000000000002    0.7500000000000001    0.5000000000000000 Ni,spin=-1.6
   0.0000000000000000    0.0000000000000000    0.0000000000000000 Ni,spin=1.6
   0.5000000000000000    0.5000000000000000    0.4999999999999999 Ni,spin=-1.6
