Ti2 Mn4 Rh2
1.0
   0.0000000000000004    2.6930730518667287    3.5166830772172433
   5.3861461037334575    0.0000000000000000    0.0000000000000004
   0.0000000000000004    2.6930730518667287   -3.5166830772172424
Ti Mn Rh
2 4 2
direct
   0.5000000000000000    0.7500000000000001    0.9999999999999997 Ti
   0.0000000000000000    0.2500000000000000    0.4999999999999997 Ti
   0.5000000000000001    0.2499999999999999    0.9999999999999999 Mn,spin=3.0
   0.0000000000000000    0.7499999999999999    0.5000000000000000 Mn,spin=3.0
   0.0000000000000000    0.0000000000000000    0.0000000000000000 Mn,spin=3.0
   0.4999999999999999    0.5000000000000000    0.5000000000000000 Mn,spin=-3.0
   0.0000000000000000    0.5000000000000000    0.0000000000000000 Rh
   0.5000000000000000    0.0000000000000000    0.5000000000000000 Rh
