Heusler tetragonal                      
   6.05000000000000     
     0.9935307803443937    0.0000000000000000    0.0000000000000000
     0.0000000000000000    0.9935307803443937    0.0000000000000000
     0.0000000000000000    0.0000000000000000    0.9940315825710030
   Fe   Co   In
     8     4     4
Direct
  0.5000000000000000  0.0000000000000000  0.5000000000000000
  0.5000000000000000  0.0000000000000000  0.0000000000000000
  0.0000000000000000  0.0000000000000000  0.5000000000000000
  0.5000000000000000  0.5000000000000000  0.0000000000000000
  0.2505194091211891  0.2494805908788109  0.7500000000000000
  0.2505194091211891  0.7505194091211891  0.2500000000000000
  0.7494805908788109  0.2494805908788109  0.2500000000000000
  0.7494805908788109  0.7505194091211891  0.7500000000000000
  0.0000000000000000  0.5000000000000000  0.5000000000000000
  0.0000000000000000  0.0000000000000000  0.0000000000000000
  0.0000000000000000  0.5000000000000000  0.0000000000000000
  0.5000000000000000  0.5000000000000000  0.5000000000000000
  0.2464588432105543  0.2535411567894457  0.2500000000000000
  0.7535411567894457  0.2535411567894457  0.7500000000000000
  0.2464588432105543  0.7464588432105543  0.7500000000000000
  0.7535411567894457  0.7464588432105543  0.2500000000000000
 
  0.00000000E+00  0.00000000E+00  0.00000000E+00
  0.00000000E+00  0.00000000E+00  0.00000000E+00
  0.00000000E+00  0.00000000E+00  0.00000000E+00
  0.00000000E+00  0.00000000E+00  0.00000000E+00
  0.00000000E+00  0.00000000E+00  0.00000000E+00
  0.00000000E+00  0.00000000E+00  0.00000000E+00
  0.00000000E+00  0.00000000E+00  0.00000000E+00
  0.00000000E+00  0.00000000E+00  0.00000000E+00
  0.00000000E+00  0.00000000E+00  0.00000000E+00
  0.00000000E+00  0.00000000E+00  0.00000000E+00
  0.00000000E+00  0.00000000E+00  0.00000000E+00
  0.00000000E+00  0.00000000E+00  0.00000000E+00
  0.00000000E+00  0.00000000E+00  0.00000000E+00
  0.00000000E+00  0.00000000E+00  0.00000000E+00
  0.00000000E+00  0.00000000E+00  0.00000000E+00
  0.00000000E+00  0.00000000E+00  0.00000000E+00
