Heusler tetragonal                      
   6.05000000000000     
     0.9884846918372971    0.0000000000000000    0.0000000000000000
     0.0000000000000000    0.9884846918372971    0.0000000000000000
     0.0000000000000000    0.0000000000000000    0.9904298099311581
   Fe   Co   Ga
     8     4     4
Direct
  0.5000000000000000  0.0000000000000000  0.5000000000000000
  0.5000000000000000  0.0000000000000000  0.0000000000000000
  0.0000000000000000  0.0000000000000000  0.5000000000000000
  0.5000000000000000  0.5000000000000000  0.0000000000000000
  0.2546766017535447  0.2453233982464553  0.7500000000000000
  0.2546766017535447  0.7546766017535447  0.2500000000000000
  0.7453233982464553  0.2453233982464553  0.2500000000000000
  0.7453233982464553  0.7546766017535447  0.7500000000000000
  0.0000000000000000  0.5000000000000000  0.5000000000000000
  0.0000000000000000  0.0000000000000000  0.0000000000000000
  0.0000000000000000  0.5000000000000000  0.0000000000000000
  0.5000000000000000  0.5000000000000000  0.5000000000000000
  0.2462576449036007  0.2537423550963993  0.2500000000000000
  0.7537423550963993  0.2537423550963993  0.7500000000000000
  0.2462576449036007  0.7462576449036007  0.7500000000000000
  0.7537423550963993  0.7462576449036007  0.2500000000000000
 
  0.00000000E+00  0.00000000E+00  0.00000000E+00
  0.00000000E+00  0.00000000E+00  0.00000000E+00
  0.00000000E+00  0.00000000E+00  0.00000000E+00
  0.00000000E+00  0.00000000E+00  0.00000000E+00
  0.00000000E+00  0.00000000E+00  0.00000000E+00
  0.00000000E+00  0.00000000E+00  0.00000000E+00
  0.00000000E+00  0.00000000E+00  0.00000000E+00
  0.00000000E+00  0.00000000E+00  0.00000000E+00
  0.00000000E+00  0.00000000E+00  0.00000000E+00
  0.00000000E+00  0.00000000E+00  0.00000000E+00
  0.00000000E+00  0.00000000E+00  0.00000000E+00
  0.00000000E+00  0.00000000E+00  0.00000000E+00
  0.00000000E+00  0.00000000E+00  0.00000000E+00
  0.00000000E+00  0.00000000E+00  0.00000000E+00
  0.00000000E+00  0.00000000E+00  0.00000000E+00
  0.00000000E+00  0.00000000E+00  0.00000000E+00
