V2 Fe4 Ir2
1.0
   0.0000000000000004    2.6975583531313605    3.3820311315792102
   2.6975583531313601   -2.6975583531313605    0.0000000000000000
   5.3951167062627210    2.6975583531313605   -3.3820311315792093
V Fe Ir
2 4 2
direct
   0.8750000000000000    0.7499999999999999    0.3750000000000001 V
   0.3750000000000000    0.7500000000000000    0.8750000000000002 V
   0.6250000000000001    0.2500000000000001    0.1250000000000001 Fe,spin=2.2
   0.1250000000000002    0.2500000000000001    0.6250000000000002 Fe,spin=2.2
   0.0000000000000000    0.0000000000000000    0.0000000000000000 Fe,spin=2.2
   0.5000000000000000    0.0000000000000000    0.5000000000000001 Fe,spin=-2.2
   0.2500000000000002    0.4999999999999999    0.2500000000000001 Ir
   0.7500000000000002    0.4999999999999999    0.7500000000000002 Ir
