Heusler tetragonal                      
   5.80000000000000     
     0.9656179547167872    0.0000000000000000    0.0000000000000000
     0.0000000000000000    0.9656179547167872    0.0000000000000000
     0.0000000000000000    0.0000000000000000    0.9656414063686045
   Fe   Co   Si
     8     4     4
Direct
  0.5000000000000000  0.0000000000000000  0.5000000000000000
  0.5000000000000000  0.0000000000000000  0.0000000000000000
  0.0000000000000000  0.0000000000000000  0.5000000000000000
  0.5000000000000000  0.5000000000000000  0.0000000000000000
  0.2525394811373900  0.2474605188626100  0.7500000000000000
  0.2525394811373900  0.7525394811373900  0.2500000000000000
  0.7474605188626100  0.2474605188626100  0.2500000000000000
  0.7474605188626100  0.7525394811373900  0.7500000000000000
  0.0000000000000000  0.5000000000000000  0.5000000000000000
  0.0000000000000000  0.0000000000000000  0.0000000000000000
  0.0000000000000000  0.5000000000000000  0.0000000000000000
  0.5000000000000000  0.5000000000000000  0.5000000000000000
  0.2494021943544880  0.2505978056455120  0.2500000000000000
  0.7505978056455120  0.2505978056455120  0.7500000000000000
  0.2494021943544880  0.7494021943544880  0.7500000000000000
  0.7505978056455120  0.7494021943544880  0.2500000000000000
 
  0.00000000E+00  0.00000000E+00  0.00000000E+00
  0.00000000E+00  0.00000000E+00  0.00000000E+00
  0.00000000E+00  0.00000000E+00  0.00000000E+00
  0.00000000E+00  0.00000000E+00  0.00000000E+00
  0.00000000E+00  0.00000000E+00  0.00000000E+00
  0.00000000E+00  0.00000000E+00  0.00000000E+00
  0.00000000E+00  0.00000000E+00  0.00000000E+00
  0.00000000E+00  0.00000000E+00  0.00000000E+00
  0.00000000E+00  0.00000000E+00  0.00000000E+00
  0.00000000E+00  0.00000000E+00  0.00000000E+00
  0.00000000E+00  0.00000000E+00  0.00000000E+00
  0.00000000E+00  0.00000000E+00  0.00000000E+00
  0.00000000E+00  0.00000000E+00  0.00000000E+00
  0.00000000E+00  0.00000000E+00  0.00000000E+00
  0.00000000E+00  0.00000000E+00  0.00000000E+00
  0.00000000E+00  0.00000000E+00  0.00000000E+00
