Ti2 Fe4 Cu2
1.0
   0.0000000000000004    2.6697164148707921    3.4780319178278170
   5.3394328297415843    0.0000000000000000    0.0000000000000004
   0.0000000000000004    2.6697164148707921   -3.4780319178278161
Ti Fe Cu
2 4 2
direct
   0.0000000000000000    0.4999999999999999    0.0000000000000000 Ti
   0.5000000000000000    0.9999999999999999    0.4999999999999999 Ti
   0.5000000000000000    0.2500000000000001    0.0000000000000000 Fe,spin=2.2
   0.0000000000000000    0.7500000000000001    0.4999999999999998 Fe,spin=-2.2
   0.0000000000000000    0.0000000000000000    0.0000000000000000 Fe,spin=2.2
   0.5000000000000000    0.4999999999999999    0.4999999999999999 Fe,spin=2.2
   0.5000000000000000    0.7500000000000001    0.9999999999999999 Cu
   0.0000000000000000    0.2500000000000000    0.5000000000000000 Cu
