Co4 Ir2 Ru2
1.0
   0.0000000000000004    2.6167452378282601    3.5332740595634413
   5.2334904756565201    0.0000000000000000    0.0000000000000004
   0.0000000000000004    2.6167452378282601   -3.5332740595634404
Co Ir Ru
4 2 2
direct
   0.4999999999999999    0.2500000000000000    0.0000000000000000 Co,spin=3.0
   0.0000000000000000    0.7500000000000000    0.4999999999999999 Co,spin=-3.0
   0.0000000000000000    0.0000000000000000    0.0000000000000000 Co,spin=3.0
   0.4999999999999999    0.5000000000000000    0.5000000000000000 Co,spin=3.0
   0.5000000000000000    0.7499999999999999    0.0000000000000000 Ir
   0.0000000000000000    0.2499999999999998    0.5000000000000001 Ir
   0.0000000000000000    0.5000000000000000    0.0000000000000000 Ru
   0.5000000000000000    0.0000000000000000    0.5000000000000000 Ru
