Heusler tetragonal                      
   5.80000000000000     
     0.9814786909020714    0.0000000000000000    0.0000000000000000
     0.0000000000000000    0.9814786909020714    0.0000000000000000
     0.0000000000000000    0.0000000000000000    0.9879537044304899
   Fe   Co   Al
     8     4     4
Direct
  0.5000000000000000  0.0000000000000000  0.5000000000000000
  0.5000000000000000  0.0000000000000000  0.0000000000000000
  0.0000000000000000  0.0000000000000000  0.5000000000000000
  0.5000000000000000  0.5000000000000000  0.0000000000000000
  0.2513646400461411  0.2486353599538589  0.7500000000000000
  0.2513646400461411  0.7513646400461411  0.2500000000000000
  0.7486353599538589  0.2486353599538589  0.2500000000000000
  0.7486353599538589  0.7513646400461411  0.7500000000000000
  0.0000000000000000  0.5000000000000000  0.5000000000000000
  0.0000000000000000  0.0000000000000000  0.0000000000000000
  0.0000000000000000  0.5000000000000000  0.0000000000000000
  0.5000000000000000  0.5000000000000000  0.5000000000000000
  0.2468536381693340  0.2531463618306589  0.2500000000000000
  0.7531463618306589  0.2531463618306589  0.7500000000000000
  0.2468536381693340  0.7468536381693411  0.7500000000000000
  0.7531463618306589  0.7468536381693411  0.2500000000000000
 
  0.00000000E+00  0.00000000E+00  0.00000000E+00
  0.00000000E+00  0.00000000E+00  0.00000000E+00
  0.00000000E+00  0.00000000E+00  0.00000000E+00
  0.00000000E+00  0.00000000E+00  0.00000000E+00
  0.00000000E+00  0.00000000E+00  0.00000000E+00
  0.00000000E+00  0.00000000E+00  0.00000000E+00
  0.00000000E+00  0.00000000E+00  0.00000000E+00
  0.00000000E+00  0.00000000E+00  0.00000000E+00
  0.00000000E+00  0.00000000E+00  0.00000000E+00
  0.00000000E+00  0.00000000E+00  0.00000000E+00
  0.00000000E+00  0.00000000E+00  0.00000000E+00
  0.00000000E+00  0.00000000E+00  0.00000000E+00
  0.00000000E+00  0.00000000E+00  0.00000000E+00
  0.00000000E+00  0.00000000E+00  0.00000000E+00
  0.00000000E+00  0.00000000E+00  0.00000000E+00
  0.00000000E+00  0.00000000E+00  0.00000000E+00
