Sc2 Co4 Hg2
1.0
   0.0000000000000005    2.9084903186492359    3.8118175375320709
   2.9084903186492355   -2.9084903186492359    0.0000000000000000
   5.8169806372984718    2.9084903186492359   -3.8118175375320695
Sc Co Hg
2 4 2
direct
   0.8750000000000000    0.7499999999999996    0.3749999999999999 Sc
   0.3750000000000000    0.7499999999999999    0.8749999999999999 Sc
   0.6250000000000002    0.2499999999999998    0.1250000000000001 Co,spin=3.0
   0.1250000000000000    0.2499999999999998    0.6249999999999999 Co,spin=-3.0
   0.0000000000000000    0.0000000000000000    0.0000000000000000 Co,spin=3.0
   0.5000000000000000    0.0000000000000000    0.5000000000000001 Co,spin=3.0
   0.2500000000000000    0.4999999999999999    0.2500000000000001 Hg
   0.7500000000000000    0.4999999999999998    0.7500000000000002 Hg
