Heusler tetragonGa                      
   6.05000000000000     
     0.9827586790966025    0.0000000000000000    0.0000000000000000
     0.0000000000000000    0.9827586790966025    0.0000000000000000
     0.0000000000000000    0.0000000000000000    1.0017899755611570
   Fe   Co   Sn
     8     4     4
Direct
  0.0000000000000000  0.5000000000000000  0.5000000000000000
  0.0000000000000000  0.0000000000000000  0.5000000000000000
  0.5000000000000000  0.5000000000000000  0.5000000000000000
  0.5000000000000000  0.0000000000000000  0.5000000000000000
  0.2500000000000000  0.7500000000000000  0.2598690786684372
  0.7500000000000000  0.2500000000000000  0.2598690786684372
  0.2500000000000000  0.2500000000000000  0.7401309213315628
  0.7500000000000000  0.7500000000000000  0.7401309213315628
  0.5000000000000000  0.5000000000000000  0.0000000000000000
  0.0000000000000000  0.0000000000000000  0.0000000000000000
  0.5000000000000000  0.0000000000000000  0.0000000000000000
  0.0000000000000000  0.5000000000000000  0.0000000000000000
  0.2500000000000000  0.2500000000000000  0.2426444523116231
  0.2500000000000000  0.7500000000000000  0.7573555476883769
  0.7500000000000000  0.7500000000000000  0.2426444523116231
  0.7500000000000000  0.2500000000000000  0.7573555476883769
 
  0.00000000E+00  0.00000000E+00  0.00000000E+00
  0.00000000E+00  0.00000000E+00  0.00000000E+00
  0.00000000E+00  0.00000000E+00  0.00000000E+00
  0.00000000E+00  0.00000000E+00  0.00000000E+00
  0.00000000E+00  0.00000000E+00  0.00000000E+00
  0.00000000E+00  0.00000000E+00  0.00000000E+00
  0.00000000E+00  0.00000000E+00  0.00000000E+00
  0.00000000E+00  0.00000000E+00  0.00000000E+00
  0.00000000E+00  0.00000000E+00  0.00000000E+00
  0.00000000E+00  0.00000000E+00  0.00000000E+00
  0.00000000E+00  0.00000000E+00  0.00000000E+00
  0.00000000E+00  0.00000000E+00  0.00000000E+00
  0.00000000E+00  0.00000000E+00  0.00000000E+00
  0.00000000E+00  0.00000000E+00  0.00000000E+00
  0.00000000E+00  0.00000000E+00  0.00000000E+00
  0.00000000E+00  0.00000000E+00  0.00000000E+00
