Sc2 Co2 Ni4
1.0
   0.0000000000000004    2.7578851592986395    3.4482590238845341
   2.7578851592986391   -2.7578851592986395    0.0000000000000000
   5.5157703185972791    2.7578851592986395   -3.4482590238845332
Sc Co Ni
2 2 4
direct
   0.0000000000000000    0.0000000000000000    0.0000000000000000 Sc
   0.5000000000000001    0.0000000000000001    0.4999999999999999 Sc
   0.2500000000000000    0.4999999999999999    0.2500000000000000 Co,spin=-3.0
   0.7500000000000000    0.4999999999999999    0.7500000000000000 Co,spin=-3.0
   0.6250000000000001    0.2499999999999999    0.1250000000000001 Ni,spin=1.6
   0.1250000000000000    0.2500000000000000    0.6250000000000001 Ni,spin=1.6
   0.8750000000000002    0.7499999999999999    0.3749999999999999 Ni,spin=1.6
   0.3750000000000000    0.7500000000000000    0.8750000000000000 Ni,spin=-1.6
