Ti2 Ni4 Ru2
1.0
   0.0000000000000005    2.9364693992316404    2.9364693992316404
   5.8729387984632808    0.0000000000000000    0.0000000000000004
   0.0000000000000004    2.9364693992316404   -2.9364693992316400
Ti Ni Ru
2 4 2
direct
   0.0000000000000000    0.5000000000000000    0.0000000000000000 Ti
   0.5000000000000000    0.0000000000000000    0.5000000000000000 Ti
   0.4999999999999999    0.2500000000000000    0.0000000000000002 Ni,spin=1.6
   0.0000000000000000    0.7500000000000000    0.5000000000000000 Ni,spin=-1.6
   0.0000000000000000    0.0000000000000000    0.0000000000000000 Ni,spin=1.6
   0.5000000000000000    0.5000000000000000    0.4999999999999999 Ni,spin=1.6
   0.5000000000000000    0.7499999999999999    0.0000000000000000 Ru
   0.0000000000000000    0.2499999999999998    0.5000000000000000 Ru
